500
    1   100   100
    2    18    18
    3    76    76
    4    51    51
    5    26    26
    6    68    68
    7    79    79
    8    44    44
    9    64    64
   10    46    46
   11    18    18
   12    65    65
   13     1     1
   14    66    66
   15    80    80
   16    52    52
   17    93    93
   18    47    47
   19    66    66
   20     3     3
   21    72    72
   22    71    71
   23    47    47
   24    99    99
   25    60    60
   26    59    59
   27    32    32
   28    70    70
   29    33    33
   30    31    31
   31    69    69
   32    44    44
   33    93    93
   34    82    82
   35    12    12
   36    74    74
   37     1     1
   38    23    23
   39    74    74
   40    58    58
   41    57    57
   42    50    50
   43    20    20
   44    11    11
   45    96    96
   46    92    92
   47    75    75
   48    88    88
   49     1     1
   50     1     1
   51    92    92
   52    43    43
   53    58    58
   54    12    12
   55    88    88
   56     8     8
   57    38    38
   58    98    98
   59    75    75
   60    37    37
   61    50    50
   62    33    33
   63    56    56
   64    88    88
   65    16    16
   66    52    52
   67    25    25
   68    19    19
   69     4     4
   70    88    88
   71    41    41
   72    21    21
   73    72    72
   74    21    21
   75    81    81
   76    35    35
   77    44    44
   78    11    11
   79    39    39
   80    12    12
   81    27    27
   82    64    64
   83    38    38
   84    94    94
   85     6     6
   86    86    86
   87    90    90
   88    47    47
   89     3     3
   90    87    87
   91    59    59
   92    23    23
   93     2     2
   94    25    25
   95    90    90
   96    69    69
   97    19    19
   98    25    25
   99    12    12
  100    14    14
  101     3     3
  102    47    47
  103    24    24
  104     7     7
  105    81    81
  106    95    95
  107    44    44
  108    21    21
  109    13    13
  110   100   100
  111    60    60
  112    18    18
  113    33    33
  114    15    15
  115    19    19
  116    92    92
  117    88    88
  118    56    56
  119    86    86
  120    19    19
  121    29    29
  122    96    96
  123    83    83
  124    90    90
  125    56    56
  126    54    54
  127    71    71
  128    14    14
  129    92    92
  130    59    59
  131    56    56
  132     1     1
  133    89    89
  134    81    81
  135    15    15
  136    42    42
  137     4     4
  138    61    61
  139     2     2
  140    66    66
  141    18    18
  142     5     5
  143    14    14
  144    51    51
  145    50    50
  146    89    89
  147     3     3
  148    78    78
  149    36    36
  150    63    63
  151    85    85
  152    82    82
  153    87    87
  154    86    86
  155    31    31
  156    41    41
  157    97    97
  158    80    80
  159    63    63
  160    72    72
  161    66    66
  162    27    27
  163    14    14
  164    54    54
  165    39    39
  166    10    10
  167     6     6
  168    42    42
  169    22    22
  170    21    21
  171     6     6
  172    65    65
  173    12    12
  174    62    62
  175    60    60
  176    43    43
  177     2     2
  178    40    40
  179    51    51
  180    79    79
  181    37    37
  182    74    74
  183    57    57
  184    58    58
  185    17    17
  186    54    54
  187    40    40
  188    81    81
  189    80    80
  190    20    20
  191     9     9
  192    11    11
  193    89    89
  194    37    37
  195    77    77
  196    28    28
  197   100   100
  198    77    77
  199    24    24
  200    17    17
  201    81    81
  202    89    89
  203    44    44
  204    50    50
  205    94    94
  206    83    83
  207    96    96
  208    62    62
  209     9     9
  210    19    19
  211    38    38
  212    51    51
  213    63    63
  214    78    78
  215    55    55
  216    85    85
  217    43    43
  218    10    10
  219    53    53
  220    41    41
  221    35    35
  222    62    62
  223    67    67
  224    26    26
  225    49    49
  226    90    90
  227    81    81
  228    84    84
  229    97    97
  230    90    90
  231    39    39
  232    69    69
  233    15    15
  234    87    87
  235    45    45
  236    61    61
  237    49    49
  238    26    26
  239    97    97
  240    15    15
  241    88    88
  242    34    34
  243    49    49
  244    19    19
  245    92    92
  246    94    94
  247     7     7
  248    55    55
  249    61    61
  250    64    64
  251    91    91
  252    77    77
  253    60    60
  254    41    41
  255    24    24
  256    30    30
  257    19    19
  258    24    24
  259    15    15
  260    61    61
  261    34    34
  262    75    75
  263    49    49
  264    15    15
  265    11    11
  266     8     8
  267    56    56
  268    15    15
  269    65    65
  270    98    98
  271    18    18
  272    64    64
  273    97    97
  274    49    49
  275     7     7
  276     6     6
  277    34    34
  278     3     3
  279     4     4
  280    70    70
  281    79    79
  282    54    54
  283    81    81
  284    69    69
  285    75    75
  286    30    30
  287    47    47
  288    88    88
  289    85    85
  290     8     8
  291    90    90
  292    95    95
  293    34    34
  294    53    53
  295    19    19
  296     7     7
  297    61    61
  298    77    77
  299    30    30
  300     7     7
  301    45    45
  302    17    17
  303    49    49
  304    39    39
  305    86    86
  306     8     8
  307    12    12
  308    12    12
  309    62    62
  310     1     1
  311    36    36
  312    20    20
  313    74    74
  314    94    94
  315     3     3
  316    77    77
  317     6     6
  318    40    40
  319    81    81
  320    65    65
  321    77    77
  322    47    47
  323    91    91
  324    22    22
  325    78    78
  326    42    42
  327    46    46
  328    45    45
  329    89    89
  330    61    61
  331    78    78
  332    93    93
  333    27    27
  334    19    19
  335     8     8
  336    84    84
  337    50    50
  338    54    54
  339    29    29
  340    53    53
  341    15    15
  342    67    67
  343    46    46
  344    38    38
  345     9     9
  346    86    86
  347    42    42
  348     2     2
  349    63    63
  350    27    27
  351    55    55
  352    52    52
  353    22    22
  354    19    19
  355    93    93
  356    74    74
  357     2     2
  358    42    42
  359    40    40
  360    81    81
  361    67    67
  362    27    27
  363     9     9
  364    50    50
  365    28    28
  366    61    61
  367    24    24
  368    81    81
  369    89    89
  370    25    25
  371    41    41
  372    86    86
  373    42    42
  374    53    53
  375    97    97
  376     8     8
  377    80    80
  378    20    20
  379     9     9
  380    39    39
  381    98    98
  382    13    13
  383    95    95
  384    36    36
  385    52    52
  386    86    86
  387    28    28
  388   100   100
  389    21    21
  390    40    40
  391    58    58
  392    26    26
  393    36    36
  394    81    81
  395    34    34
  396    64    64
  397    59    59
  398    79    79
  399    45    45
  400    12    12
  401    79    79
  402     8     8
  403    33    33
  404    34    34
  405    51    51
  406    92    92
  407    99    99
  408    94    94
  409    75    75
  410    46    46
  411    97    97
  412    29    29
  413    16    16
  414    31    31
  415    26    26
  416    20    20
  417    71    71
  418     2     2
  419     9     9
  420    19    19
  421    88    88
  422    89    89
  423    28    28
  424    73    73
  425    43    43
  426    97    97
  427    97    97
  428    57    57
  429    86    86
  430    72    72
  431    23    23
  432     3     3
  433    52    52
  434    87    87
  435    32    32
  436    53    53
  437    57    57
  438    64    64
  439    34    34
  440    83    83
  441    58    58
  442    78    78
  443    73    73
  444    75    75
  445    97    97
  446    64    64
  447    12    12
  448    61    61
  449    68    68
  450    37    37
  451    72    72
  452    64    64
  453    31    31
  454    68    68
  455    37    37
  456    90    90
  457    43    43
  458     1     1
  459    59    59
  460    93    93
  461    61    61
  462    72    72
  463    42    42
  464    59    59
  465    45    45
  466    90    90
  467    62    62
  468    16    16
  469    21    21
  470    32    32
  471    52    52
  472     9     9
  473     1     1
  474    91    91
  475    57    57
  476    53    53
  477    29    29
  478    14    14
  479    37    37
  480    87    87
  481    17    17
  482    17    17
  483    99    99
  484    85    85
  485    33    33
  486    46    46
  487    67    67
  488    44    44
  489    30    30
  490    16    16
  491    63    63
  492    82    82
  493    14    14
  494    64    64
  495    58    58
  496    87    87
  497    44    44
  498    21    21
  499    48    48
  500    66    66
8323
